(declare-const tmp Int)
(declare-const term_to_project_onto0 Real)
(declare-const term_to_project_onto Real)
(assert (exists ((|tmp'?1| Int) (|x'?2| Int) (havoc?3 Int) (x?4 Int))
         (and (<= (+ (- x?4) 1) 0)
                (or (<= (+ havoc?3 1) 0) (<= (+ (- havoc?3) 1) 0))
                (= (+ |tmp'?1| (- havoc?3)) 0) (= (+ |x'?2| (- x?4) -2) 0)
                (= term_to_project_onto0 (+ |x'?2| (- x?4)))
                (= term_to_project_onto (+ |tmp'?1| (- tmp))))))
(check-sat)
